NAME          COPTPROB
OBJSENSE
  MIN
ROWS
 N  __OBJ___
 L  C0      
 L  C2      
 L  C3      
 L  C4      
 L  C10     
 L  C11     
 L  C14     
 L  C17     
 L  C19     
 L  C23     
 L  C25     
 L  C28     
 L  C33     
 L  C36     
 L  C40     
 L  C42     
 L  C43     
 L  C48     
 L  C53     
 L  C54     
 L  C55     
 L  C62     
 L  C63     
 L  C69     
 L  C71     
 L  C75     
 L  C76     
 L  C78     
 L  C80     
 L  C81     
 L  C82     
 L  C84     
 L  C86     
 L  C88     
 L  C92     
 L  C95     
 L  C103    
 L  C106    
 L  C108    
 L  C109    
 L  C118    
 L  C119    
 L  C128    
 L  C138    
 L  C141    
 L  C146    
 L  C148    
 L  C150    
 L  C153    
 L  C154    
 L  C155    
 L  C157    
 L  C158    
 L  C164    
 L  C166    
 L  C167    
 L  C169    
 L  C172    
 L  C173    
 L  C174    
 L  C175    
 L  C177    
 L  C178    
 L  C179    
 L  C180    
 L  C181    
 L  C192    
 L  C196    
 L  C199    
 L  C200    
 L  C202    
 L  C204    
 L  C206    
 L  C207    
 L  C210    
 L  C216    
 L  C220    
 L  C225    
 L  C227    
 L  C230    
 L  C231    
 L  C235    
 L  C236    
 L  C237    
 L  C246    
 L  C247    
 L  C256    
 L  C263    
 L  C270    
 L  C271    
 L  C275    
 L  C276    
 L  C281    
 L  C283    
 L  C286    
 L  C300    
 L  C304    
 L  C305    
 L  C311    
 L  C312    
 L  C317    
 L  C320    
 L  C322    
 L  C328    
 L  C329    
 L  C331    
 L  C332    
 L  C333    
 L  C335    
 L  C338    
 L  C340    
 L  C346    
 L  C349    
 L  C352    
 L  C354    
 L  C356    
 L  C358    
 L  C363    
 L  C370    
 L  C371    
 L  C374    
 L  C380    
 L  C382    
 L  C383    
 L  C385    
 L  C386    
 L  C390    
 L  C393    
COLUMNS
    MARKER    'MARKER'                 'INTORG'
    x2        __OBJ___  359
    x2        C86       -1
    x2        C158      -1
    x2        C281      -1
    x2        C333      -1
    x2        C386      -1
    x3        __OBJ___  738
    x3        C19       -1
    x3        C92       -1
    x7        __OBJ___  282
    x7        C148      -1
    x7        C167      -1
    x7        C216      -1
    x7        C246      -1
    x7        C311      -1
    x7        C340      -1
    x13       __OBJ___  818
    x13       C146      -1
    x13       C177      -1
    x13       C385      -1
    x13       C390      -1
    x22       __OBJ___  461
    x22       C3        -1
    x22       C157      -1
    x22       C164      -1
    x22       C271      -1
    x22       C346      -1
    x26       __OBJ___  328
    x26       C76       -1
    x26       C220      -1
    x29       __OBJ___  162
    x29       C63       -1
    x29       C247      -1
    x29       C363      -1
    x33       __OBJ___  499
    x33       C109      -1
    x33       C154      -1
    x33       C196      -1
    x35       __OBJ___  694
    x35       C33       -1
    x35       C320      -1
    x35       C329      -1
    x41       __OBJ___  56
    x41       C175      -1
    x41       C178      -1
    x41       C270      -1
    x41       C356      -1
    x42       __OBJ___  281
    x42       C338      -1
    x42       C370      -1
    x44       __OBJ___  883
    x44       C283      -1
    x44       C374      -1
    x44       C382      -1
    x45       __OBJ___  617
    x45       C28       -1
    x45       C80       -1
    x45       C180      -1
    x45       C286      -1
    x45       C349      -1
    x49       __OBJ___  329
    x49       C25       -1
    x49       C352      -1
    x51       __OBJ___  644
    x51       C10       -1
    x51       C43       -1
    x51       C54       -1
    x51       C174      -1
    x51       C179      -1
    x51       C276      -1
    x52       __OBJ___  642
    x52       C103      -1
    x52       C237      -1
    x53       __OBJ___  347
    x53       C17       -1
    x53       C236      -1
    x53       C380      -1
    x54       __OBJ___  803
    x54       C4        -1
    x54       C256      -1
    x54       C383      -1
    x60       __OBJ___  320
    x60       C36       -1
    x60       C207      -1
    x64       __OBJ___  23
    x64       C62       -1
    x64       C204      -1
    x66       __OBJ___  543
    x66       C81       -1
    x66       C155      -1
    x67       __OBJ___  80
    x67       C206      -1
    x67       C235      -1
    x67       C332      -1
    x69       __OBJ___  822
    x69       C11       -1
    x69       C181      -1
    x69       C335      -1
    x69       C371      -1
    x70       __OBJ___  528
    x70       C153      -1
    x70       C263      -1
    x70       C304      -1
    x73       __OBJ___  432
    x73       C106      -1
    x73       C202      -1
    x74       __OBJ___  591
    x74       C2        -1
    x74       C53       -1
    x74       C119      -1
    x81       __OBJ___  245
    x81       C42       -1
    x81       C166      -1
    x81       C225      -1
    x81       C317      -1
    x82       __OBJ___  369
    x82       C88       -1
    x83       __OBJ___  528
    x83       C78       -1
    x83       C141      -1
    x83       C230      -1
    x84       __OBJ___  410
    x84       C0        -1
    x84       C275      -1
    x84       C300      -1
    x84       C305      -1
    x87       __OBJ___  251
    x87       C172      -1
    x87       C227      -1
    x90       __OBJ___  691
    x90       C55       -1
    x90       C69       -1
    x90       C108      -1
    x90       C128      -1
    x92       __OBJ___  934
    x92       C14       -1
    x92       C138      -1
    x92       C231      -1
    x92       C354      -1
    x93       __OBJ___  445
    x93       C48       -1
    x93       C199      -1
    x103      __OBJ___  558
    x103      C172      -1
    x103      C196      -1
    x104      __OBJ___  487
    x104      C180      -1
    x104      C206      -1
    x104      C235      -1
    x104      C352      -1
    x110      __OBJ___  223
    x110      C172      -1
    x110      C328      -1
    x111      __OBJ___  472
    x111      C17       -1
    x111      C172      -1
    x111      C220      -1
    x114      __OBJ___  335
    x114      C230      -1
    x114      C312      -1
    x114      C370      -1
    x116      __OBJ___  328
    x116      C76       -1
    x116      C393      -1
    x119      __OBJ___  658
    x119      C154      -1
    x119      C166      -1
    x122      __OBJ___  651
    x122      C179      -1
    x122      C358      -1
    x130      __OBJ___  311
    x130      C150      -1
    x130      C158      -1
    x130      C352      -1
    x131      __OBJ___  180
    x131      C206      -1
    x131      C320      -1
    x133      __OBJ___  356
    x133      C86       -1
    x133      C106      -1
    x135      __OBJ___  743
    x135      C141      -1
    x135      C335      -1
    x135      C358      -1
    x138      __OBJ___  269
    x138      C11       -1
    x138      C75       -1
    x138      C172      -1
    x138      C235      -1
    x140      __OBJ___  179
    x140      C28       -1
    x140      C40       -1
    x140      C363      -1
    x141      __OBJ___  608
    x141      C173      -1
    x141      C256      -1
    x145      __OBJ___  453
    x145      C55       -1
    x145      C220      -1
    x150      __OBJ___  808
    x150      C177      -1
    x150      C237      -1
    x153      __OBJ___  3
    x153      C305      -1
    x157      __OBJ___  167
    x157      C4        -1
    x157      C225      -1
    x157      C311      -1
    x157      C346      -1
    x157      C393      -1
    x162      __OBJ___  736
    x162      C11       -1
    x162      C106      -1
    x162      C300      -1
    x164      __OBJ___  165
    x164      C118      -1
    x164      C200      -1
    x164      C331      -1
    x165      __OBJ___  779
    x165      C71       -1
    x165      C199      -1
    x165      C230      -1
    x165      C328      -1
    x169      __OBJ___  7
    x169      C10       -1
    x169      C71       -1
    x171      __OBJ___  120
    x171      C178      -1
    x171      C247      -1
    x174      __OBJ___  687
    x174      C146      -1
    x174      C331      -1
    x174      C393      -1
    x176      __OBJ___  309
    x176      C200      -1
    x176      C371      -1
    x182      __OBJ___  635
    x182      C69       -1
    x182      C95       -1
    x182      C220      -1
    x182      C283      -1
    x182      C382      -1
    x190      __OBJ___  342
    x190      C28       -1
    x190      C270      -1
    x190      C271      -1
    x193      __OBJ___  83
    x193      C80       -1
    x193      C82       -1
    x193      C109      -1
    x199      __OBJ___  520
    x199      C71       -1
    x199      C180      -1
    x199      C304      -1
    x202      __OBJ___  528
    x202      C33       -1
    x202      C62       -1
    x205      __OBJ___  274
    x205      C246      -1
    x205      C335      -1
    x210      __OBJ___  916
    x210      C86       -1
    x210      C382      -1
    x211      __OBJ___  37
    x211      C322      -1
    x212      __OBJ___  855
    x212      C153      -1
    x212      C166      -1
    x212      C382      -1
    x213      __OBJ___  566
    x213      C82       -1
    x213      C154      -1
    x215      __OBJ___  918
    x215      C4        -1
    x215      C88       -1
    x215      C276      -1
    x215      C370      -1
    x215      C374      -1
    x218      __OBJ___  397
    x218      C180      -1
    x218      C220      -1
    x221      __OBJ___  144
    x221      C346      -1
    x224      __OBJ___  321
    x224      C275      -1
    x229      __OBJ___  1000
    x229      C40       -1
    x229      C119      -1
    x229      C141      -1
    x229      C380      -1
    x230      __OBJ___  344
    x230      C227      -1
    x230      C276      -1
    x231      __OBJ___  947
    x231      C103      -1
    x231      C174      -1
    x231      C317      -1
    x234      __OBJ___  155
    x234      C43       -1
    x234      C216      -1
    x234      C328      -1
    x237      __OBJ___  447
    x237      C246      -1
    x237      C370      -1
    x238      __OBJ___  302
    x238      C86       -1
    x238      C227      -1
    x238      C358      -1
    x239      __OBJ___  931
    x239      C19       -1
    x239      C155      -1
    x239      C180      -1
    x240      __OBJ___  678
    x240      C371      -1
    x240      C390      -1
    x242      __OBJ___  51
    x242      C53       -1
    x242      C157      -1
    x242      C207      -1
    x242      C332      -1
    x243      __OBJ___  669
    x243      C55       -1
    x243      C181      -1
    x248      __OBJ___  546
    x248      C62       -1
    x248      C146      -1
    x248      C164      -1
    x249      __OBJ___  87
    x249      C333      -1
    x249      C338      -1
    x252      __OBJ___  448
    x252      C2        -1
    x252      C246      -1
    x255      __OBJ___  490
    x255      C78       -1
    x255      C138      -1
    x255      C305      -1
    x258      __OBJ___  373
    x258      C175      -1
    x258      C349      -1
    x259      __OBJ___  275
    x259      C103      -1
    x259      C322      -1
    x262      __OBJ___  388
    x262      C237      -1
    x262      C246      -1
    x262      C270      -1
    x263      __OBJ___  196
    x263      C172      -1
    x267      __OBJ___  942
    x267      C3        -1
    x267      C14       -1
    x267      C270      -1
    x269      __OBJ___  439
    x269      C63       -1
    x269      C167      -1
    x277      __OBJ___  209
    x277      C69       -1
    x277      C386      -1
    x280      __OBJ___  194
    x280      C75       -1
    x283      __OBJ___  511
    x283      C25       -1
    x283      C53       -1
    x283      C84       -1
    x283      C177      -1
    x283      C231      -1
    x283      C371      -1
    x284      __OBJ___  424
    x284      C17       -1
    x284      C19       -1
    x284      C88       -1
    x284      C153      -1
    x285      __OBJ___  52
    x285      C48       -1
    x285      C329      -1
    x285      C340      -1
    x287      __OBJ___  564
    x287      C78       -1
    x287      C81       -1
    x287      C385      -1
    x293      __OBJ___  88
    x293      C11       -1
    x294      __OBJ___  497
    x294      C75       -1
    x294      C80       -1
    x294      C231      -1
    x296      __OBJ___  17
    x296      C0        -1
    x300      __OBJ___  103
    x300      C42       -1
    x300      C150      -1
    x300      C263      -1
    x303      __OBJ___  225
    x303      C153      -1
    x306      __OBJ___  775
    x306      C76       -1
    x306      C158      -1
    x306      C230      -1
    x308      __OBJ___  457
    x308      C81       -1
    x308      C322      -1
    x308      C328      -1
    x309      __OBJ___  219
    x309      C247      -1
    x309      C281      -1
    x309      C312      -1
    x311      __OBJ___  34
    x311      C0        -1
    x311      C173      -1
    x311      C192      -1
    x311      C340      -1
    x312      __OBJ___  561
    x312      C40       -1
    x312      C236      -1
    x312      C346      -1
    x315      __OBJ___  37
    x315      C3        -1
    x315      C333      -1
    x318      __OBJ___  316
    x318      C164      -1
    x320      __OBJ___  212
    x320      C95       -1
    x320      C128      -1
    x320      C385      -1
    x324      __OBJ___  235
    x324      C84       -1
    x324      C206      -1
    x333      __OBJ___  46
    x333      C157      -1
    x333      C173      -1
    x334      __OBJ___  395
    x334      C81       -1
    x334      C286      -1
    x335      __OBJ___  582
    x335      C23       -1
    x335      C86       -1
    x335      C148      -1
    x335      C227      -1
    x335      C352      -1
    x337      __OBJ___  786
    x337      C92       -1
    x337      C275      -1
    x341      __OBJ___  59
    x341      C23       -1
    x341      C54       -1
    x341      C200      -1
    x343      __OBJ___  480
    x343      C36       -1
    x343      C271      -1
    x344      __OBJ___  517
    x344      C304      -1
    x344      C385      -1
    x346      __OBJ___  470
    x346      C174      -1
    x347      __OBJ___  568
    x347      C210      -1
    x347      C354      -1
    x349      __OBJ___  677
    x349      C167      -1
    x349      C169      -1
    x349      C204      -1
    x349      C283      -1
    x349      C320      -1
    x350      __OBJ___  129
    x350      C109      -1
    x350      C225      -1
    x355      __OBJ___  618
    x355      C40       -1
    x355      C169      -1
    x355      C370      -1
    x355      C371      -1
    x364      __OBJ___  248
    x364      C119      -1
    x364      C202      -1
    x364      C210      -1
    x365      __OBJ___  310
    x365      C42       -1
    x365      C192      -1
    x365      C286      -1
    x365      C383      -1
    x366      __OBJ___  83
    x366      C54       -1
    x366      C356      -1
    x373      __OBJ___  738
    x373      C2        -1
    x373      C63       -1
    x373      C220      -1
    x377      __OBJ___  80
    x377      C358      -1
    x380      __OBJ___  21
    x380      C207      -1
    x380      C210      -1
    x385      __OBJ___  337
    x385      C76       -1
    x385      C119      -1
    x387      __OBJ___  639
    x387      C17       -1
    x387      C106      -1
    x387      C118      -1
    x389      __OBJ___  649
    x389      C33       -1
    x389      C180      -1
    x393      __OBJ___  13
    x393      C108      -1
    x393      C169      -1
    x398      __OBJ___  249
    x398      C128      -1
    x398      C181      -1
    x399      __OBJ___  289
    x399      C371      -1
    MARKER    'MARKER'                 'INTEND'
RHS
    RHS       __OBJ___  -25088
    RHS       C0        -1
    RHS       C2        -1
    RHS       C3        -1
    RHS       C4        -1
    RHS       C10       -1
    RHS       C11       -1
    RHS       C14       -1
    RHS       C17       -1
    RHS       C19       -1
    RHS       C23       -1
    RHS       C25       -1
    RHS       C28       -1
    RHS       C33       -1
    RHS       C36       -1
    RHS       C40       -1
    RHS       C42       -1
    RHS       C43       -1
    RHS       C48       -1
    RHS       C53       -1
    RHS       C54       -1
    RHS       C55       -1
    RHS       C62       -1
    RHS       C63       -1
    RHS       C69       -1
    RHS       C71       -1
    RHS       C75       -1
    RHS       C76       -1
    RHS       C78       -1
    RHS       C80       -1
    RHS       C81       -1
    RHS       C82       -1
    RHS       C84       -1
    RHS       C86       -1
    RHS       C88       -1
    RHS       C92       -1
    RHS       C95       -1
    RHS       C103      -1
    RHS       C106      -1
    RHS       C108      -1
    RHS       C109      -1
    RHS       C118      -1
    RHS       C119      -1
    RHS       C128      -1
    RHS       C138      -1
    RHS       C141      -1
    RHS       C146      -1
    RHS       C148      -1
    RHS       C150      -1
    RHS       C153      -1
    RHS       C154      -1
    RHS       C155      -1
    RHS       C157      -1
    RHS       C158      -1
    RHS       C164      -1
    RHS       C166      -1
    RHS       C167      -1
    RHS       C169      -1
    RHS       C172      -1
    RHS       C173      -1
    RHS       C174      -1
    RHS       C175      -1
    RHS       C177      -1
    RHS       C178      -1
    RHS       C179      -1
    RHS       C180      -1
    RHS       C181      -1
    RHS       C192      -1
    RHS       C196      -1
    RHS       C199      -1
    RHS       C200      -1
    RHS       C202      -1
    RHS       C204      -1
    RHS       C206      -1
    RHS       C207      -1
    RHS       C210      -1
    RHS       C216      -1
    RHS       C220      -1
    RHS       C225      -1
    RHS       C227      -1
    RHS       C230      -1
    RHS       C231      -1
    RHS       C235      -1
    RHS       C236      -1
    RHS       C237      -1
    RHS       C246      -1
    RHS       C247      -1
    RHS       C256      -1
    RHS       C263      -1
    RHS       C270      -1
    RHS       C271      -1
    RHS       C275      -1
    RHS       C276      -1
    RHS       C281      -1
    RHS       C283      -1
    RHS       C286      -1
    RHS       C300      -1
    RHS       C304      -1
    RHS       C305      -1
    RHS       C311      -1
    RHS       C312      -1
    RHS       C317      -1
    RHS       C320      -1
    RHS       C322      -1
    RHS       C328      -1
    RHS       C329      -1
    RHS       C331      -1
    RHS       C332      -1
    RHS       C333      -1
    RHS       C335      -1
    RHS       C338      -1
    RHS       C340      -1
    RHS       C346      -1
    RHS       C349      -1
    RHS       C352      -1
    RHS       C354      -1
    RHS       C356      -1
    RHS       C358      -1
    RHS       C363      -1
    RHS       C370      -1
    RHS       C371      -1
    RHS       C374      -1
    RHS       C380      -1
    RHS       C382      -1
    RHS       C383      -1
    RHS       C385      -1
    RHS       C386      -1
    RHS       C390      -1
    RHS       C393      -1
BOUNDS
 UP BOUND     x2        1
 UP BOUND     x3        1
 UP BOUND     x7        1
 UP BOUND     x13       1
 UP BOUND     x22       1
 UP BOUND     x26       1
 UP BOUND     x29       1
 UP BOUND     x33       1
 UP BOUND     x35       1
 UP BOUND     x41       1
 UP BOUND     x42       1
 UP BOUND     x44       1
 UP BOUND     x45       1
 UP BOUND     x49       1
 UP BOUND     x51       1
 UP BOUND     x52       1
 UP BOUND     x53       1
 UP BOUND     x54       1
 UP BOUND     x60       1
 UP BOUND     x64       1
 UP BOUND     x66       1
 UP BOUND     x67       1
 UP BOUND     x69       1
 UP BOUND     x70       1
 UP BOUND     x73       1
 UP BOUND     x74       1
 UP BOUND     x81       1
 UP BOUND     x82       1
 UP BOUND     x83       1
 UP BOUND     x84       1
 UP BOUND     x87       1
 UP BOUND     x90       1
 UP BOUND     x92       1
 UP BOUND     x93       1
 UP BOUND     x103      1
 UP BOUND     x104      1
 UP BOUND     x110      1
 UP BOUND     x111      1
 UP BOUND     x114      1
 UP BOUND     x116      1
 UP BOUND     x119      1
 UP BOUND     x122      1
 UP BOUND     x130      1
 UP BOUND     x131      1
 UP BOUND     x133      1
 UP BOUND     x135      1
 UP BOUND     x138      1
 UP BOUND     x140      1
 UP BOUND     x141      1
 UP BOUND     x145      1
 UP BOUND     x150      1
 UP BOUND     x153      1
 UP BOUND     x157      1
 UP BOUND     x162      1
 UP BOUND     x164      1
 UP BOUND     x165      1
 UP BOUND     x169      1
 UP BOUND     x171      1
 UP BOUND     x174      1
 UP BOUND     x176      1
 UP BOUND     x182      1
 UP BOUND     x190      1
 UP BOUND     x193      1
 UP BOUND     x199      1
 UP BOUND     x202      1
 UP BOUND     x205      1
 UP BOUND     x210      1
 UP BOUND     x211      1
 UP BOUND     x212      1
 UP BOUND     x213      1
 UP BOUND     x215      1
 UP BOUND     x218      1
 UP BOUND     x221      1
 UP BOUND     x224      1
 UP BOUND     x229      1
 UP BOUND     x230      1
 UP BOUND     x231      1
 UP BOUND     x234      1
 UP BOUND     x237      1
 UP BOUND     x238      1
 UP BOUND     x239      1
 UP BOUND     x240      1
 UP BOUND     x242      1
 UP BOUND     x243      1
 UP BOUND     x248      1
 UP BOUND     x249      1
 UP BOUND     x252      1
 UP BOUND     x255      1
 UP BOUND     x258      1
 UP BOUND     x259      1
 UP BOUND     x262      1
 UP BOUND     x263      1
 UP BOUND     x267      1
 UP BOUND     x269      1
 UP BOUND     x277      1
 UP BOUND     x280      1
 UP BOUND     x283      1
 UP BOUND     x284      1
 UP BOUND     x285      1
 UP BOUND     x287      1
 UP BOUND     x293      1
 UP BOUND     x294      1
 UP BOUND     x296      1
 UP BOUND     x300      1
 UP BOUND     x303      1
 UP BOUND     x306      1
 UP BOUND     x308      1
 UP BOUND     x309      1
 UP BOUND     x311      1
 UP BOUND     x312      1
 UP BOUND     x315      1
 UP BOUND     x318      1
 UP BOUND     x320      1
 UP BOUND     x324      1
 UP BOUND     x333      1
 UP BOUND     x334      1
 UP BOUND     x335      1
 UP BOUND     x337      1
 UP BOUND     x341      1
 UP BOUND     x343      1
 UP BOUND     x344      1
 UP BOUND     x346      1
 UP BOUND     x347      1
 UP BOUND     x349      1
 UP BOUND     x350      1
 UP BOUND     x355      1
 UP BOUND     x364      1
 UP BOUND     x365      1
 UP BOUND     x366      1
 UP BOUND     x373      1
 UP BOUND     x377      1
 UP BOUND     x380      1
 UP BOUND     x385      1
 UP BOUND     x387      1
 UP BOUND     x389      1
 UP BOUND     x393      1
 UP BOUND     x398      1
 UP BOUND     x399      1
ENDATA
